row=9;
column=9;
colour = 9;
Board=[|7,7,7,7,4,4,4,1,1|7,7,7,7,4,1,1,1,1|7,7,4,4,4,4,4,1,1|7,7,7,7,3,3,3,3,3|7,7,7,7,3,3,8,8,8|5,7,7,7,3,3,6,6,6|5,5,7,7,7,3,6,6,6|5,5,7,7,2,2,2,2,9|5,5,5,2,2,2,2,2,2|];
